% Auto-generated by scripts/generate_dzn.py
% problem_type   = regex
% instance       = regex_82
% source_json    = instances_json/1_medium_blowup/regex_82.json
% blowup         = 3.611111111111111
% representation = DFA

mode = 0;

var_count = 21;
n_constraints = 2;
Q = 55;
S = 2;
q0 = [1, 1];
F = [{35, 36, 37, 38, 39, 40, 41, 42, 43, 44, 45, 46, 47, 48, 49, 50, 51, 52, 53, 54, 55}, {9}];
weights = [5, 9, 6, 1, 10, 6, 3, 7, 2, 9, 3, 9, 1, 9, 10, 10, 5, 5, 8, 6, 10];
d_dfa = array3d(1..2, 1..55, 1..2, [
  % k = 1
    2, 1,
    2, 3,
    5, 4,
    7, 6,
    7, 8,
    10, 9,
    10, 11,
    13, 12,
    15, 14,
    15, 16,
    18, 17,
    20, 19,
    20, 21,
    23, 22,
    23, 24,
    26, 25,
    28, 27,
    28, 29,
    31, 30,
    31, 32,
    34, 33,
    36, 35,
    36, 37,
    39, 38,
    41, 40,
    41, 42,
    44, 43,
    44, 45,
    47, 46,
    49, 48,
    49, 50,
    52, 51,
    54, 53,
    54, 55,
    2, 1,
    2, 3,
    5, 4,
    7, 6,
    7, 8,
    10, 9,
    10, 11,
    13, 12,
    15, 14,
    15, 16,
    18, 17,
    20, 19,
    20, 21,
    23, 22,
    23, 24,
    26, 25,
    28, 27,
    28, 29,
    31, 30,
    31, 32,
    34, 33,

  % k = 2
    1, 2,
    2, 3,
    3, 4,
    4, 5,
    5, 6,
    6, 7,
    7, 8,
    8, 9,
    9, 10,
    10, 10,
    0, 0,
    0, 0,
    0, 0,
    0, 0,
    0, 0,
    0, 0,
    0, 0,
    0, 0,
    0, 0,
    0, 0,
    0, 0,
    0, 0,
    0, 0,
    0, 0,
    0, 0,
    0, 0,
    0, 0,
    0, 0,
    0, 0,
    0, 0,
    0, 0,
    0, 0,
    0, 0,
    0, 0,
    0, 0,
    0, 0,
    0, 0,
    0, 0,
    0, 0,
    0, 0,
    0, 0,
    0, 0,
    0, 0,
    0, 0,
    0, 0,
    0, 0,
    0, 0,
    0, 0,
    0, 0,
    0, 0,
    0, 0,
    0, 0,
    0, 0,
    0, 0,
    0, 0
]);
d_nfa = array3d(1..2, 1..55, 1..2, [
  % k = 1
    {}, {},
    {}, {},
    {}, {},
    {}, {},
    {}, {},
    {}, {},
    {}, {},
    {}, {},
    {}, {},
    {}, {},
    {}, {},
    {}, {},
    {}, {},
    {}, {},
    {}, {},
    {}, {},
    {}, {},
    {}, {},
    {}, {},
    {}, {},
    {}, {},
    {}, {},
    {}, {},
    {}, {},
    {}, {},
    {}, {},
    {}, {},
    {}, {},
    {}, {},
    {}, {},
    {}, {},
    {}, {},
    {}, {},
    {}, {},
    {}, {},
    {}, {},
    {}, {},
    {}, {},
    {}, {},
    {}, {},
    {}, {},
    {}, {},
    {}, {},
    {}, {},
    {}, {},
    {}, {},
    {}, {},
    {}, {},
    {}, {},
    {}, {},
    {}, {},
    {}, {},
    {}, {},
    {}, {},
    {}, {},

  % k = 2
    {}, {},
    {}, {},
    {}, {},
    {}, {},
    {}, {},
    {}, {},
    {}, {},
    {}, {},
    {}, {},
    {}, {},
    {}, {},
    {}, {},
    {}, {},
    {}, {},
    {}, {},
    {}, {},
    {}, {},
    {}, {},
    {}, {},
    {}, {},
    {}, {},
    {}, {},
    {}, {},
    {}, {},
    {}, {},
    {}, {},
    {}, {},
    {}, {},
    {}, {},
    {}, {},
    {}, {},
    {}, {},
    {}, {},
    {}, {},
    {}, {},
    {}, {},
    {}, {},
    {}, {},
    {}, {},
    {}, {},
    {}, {},
    {}, {},
    {}, {},
    {}, {},
    {}, {},
    {}, {},
    {}, {},
    {}, {},
    {}, {},
    {}, {},
    {}, {},
    {}, {},
    {}, {},
    {}, {},
    {}, {}
]);
